decision_x1=[0,7];
decision_x2=[0,7];
decision_x3=[0,7];
decision_x4=[0,7];
decision_x5=[0,7];
decision_x6=[0,7];
decision_x7=[0,7];
decision_x8=[0,7];
decision_x9=[0,7];
decision_x10=[0,7];
decision_x11=[0,7];
decision_x12=[0,7];
decision_x13=[0,7];
decision_x14=[0,7];
decision_x15=[0,7];
decision_x16=[0,7];
decision_x17=[0,7];
decision_x18=[0,7];
decision_x19=[0,7];
decision_x20=[0,7];
random_y1=[0,7];
random_y2=[0,7];
random_y3=[0,7];
random_y4=[0,7];
random_y5=[0,7];
random_y6=[0,7];
random_y7=[0,7];
random_y8=[0,7];
random_y9=[0,7];
constraint_x2_x1=[
0,0,1.4|
0,1,6.3|
0,2,1.3|
0,3,8.9|
0,4,5.1|
0,5,6.3|
0,6,4|
0,7,0.65|
1,0,2.9|
1,1,9.3|
1,2,6.2|
1,3,1.7|
1,4,3|
1,5,1.8|
1,6,2.1|
1,7,8.2|
2,0,0.019|
2,1,5.8|
2,2,4.5|
2,3,5.4|
2,4,2.9|
2,5,2.8|
2,6,7.3|
2,7,0.8|
3,0,3.7|
3,1,4.5|
3,2,8.4|
3,3,3|
3,4,9.3|
3,5,4.1|
3,6,5.3|
3,7,6.6|
4,0,6|
4,1,9.7|
4,2,5.3|
4,3,2.1|
4,4,1.4|
4,5,2|
4,6,9.1|
4,7,0.25|
5,0,3.6|
5,1,6.2|
5,2,5.2|
5,3,1.7|
5,4,6.9|
5,5,9.7|
5,6,5|
5,7,8.7|
6,0,9.7|
6,1,3|
6,2,5.5|
6,3,1.3|
6,4,7.6|
6,5,2.1|
6,6,10|
6,7,8.9|
7,0,3.4|
7,1,8.1|
7,2,8.7|
7,3,1|
7,4,7.6|
7,5,3.1|
7,6,6.4|
7,7,3.1|
];
constraint_x3_x2=[
0,0,2|
0,1,6.7|
0,2,6.6|
0,3,9.9|
0,4,6.8|
0,5,9.5|
0,6,9.6|
0,7,5.9|
1,0,8.7|
1,1,8.9|
1,2,6|
1,3,7.6|
1,4,2.5|
1,5,9.6|
1,6,5|
1,7,7|
2,0,9.7|
2,1,3.7|
2,2,0.12|
2,3,3.5|
2,4,3|
2,5,7.1|
2,6,0.25|
2,7,1.2|
3,0,2.5|
3,1,3.7|
3,2,2.3|
3,3,8.8|
3,4,9.7|
3,5,6.9|
3,6,6.4|
3,7,6.7|
4,0,7.1|
4,1,7.7|
4,2,0.49|
4,3,8.9|
4,4,8.2|
4,5,1.4|
4,6,0.017|
4,7,7.8|
5,0,7.3|
5,1,4.2|
5,2,5.3|
5,3,0.54|
5,4,3.7|
5,5,0.034|
5,6,0.1|
5,7,4|
6,0,4.8|
6,1,1.2|
6,2,6.5|
6,3,9.4|
6,4,7.4|
6,5,8.1|
6,6,7.1|
6,7,9.9|
7,0,4.2|
7,1,9.6|
7,2,3.8|
7,3,9.8|
7,4,0.61|
7,5,3.9|
7,6,2.9|
7,7,0.34|
];
constraint_x4_x3=[
0,0,9.2|
0,1,8|
0,2,3.5|
0,3,6.5|
0,4,5.5|
0,5,8.1|
0,6,8.3|
0,7,7.1|
1,0,5.7|
1,1,8.8|
1,2,4.5|
1,3,3.6|
1,4,5.4|
1,5,4.2|
1,6,4|
1,7,3.7|
2,0,8.7|
2,1,6.6|
2,2,4.5|
2,3,1.2|
2,4,7.6|
2,5,1.5|
2,6,2|
2,7,6|
3,0,9.6|
3,1,4.2|
3,2,0.41|
3,3,8.6|
3,4,2.3|
3,5,1.8|
3,6,8.2|
3,7,2.8|
4,0,9.7|
4,1,0.94|
4,2,8.3|
4,3,6.4|
4,4,3.1|
4,5,9.4|
4,6,5.7|
4,7,8.8|
5,0,7.8|
5,1,7.4|
5,2,9.1|
5,3,0.83|
5,4,6.4|
5,5,2.1|
5,6,3.8|
5,7,8.7|
6,0,5.2|
6,1,1.9|
6,2,5.1|
6,3,9.7|
6,4,0.99|
6,5,7.6|
6,6,1.1|
6,7,2|
7,0,3.5|
7,1,5.6|
7,2,3.7|
7,3,7.9|
7,4,5.7|
7,5,4.5|
7,6,5|
7,7,10|
];
constraint_x5_x1=[
0,0,1.4|
0,1,0.74|
0,2,9.5|
0,3,7.2|
0,4,1.5|
0,5,3.2|
0,6,0.39|
0,7,3.8|
1,0,1.6|
1,1,7.2|
1,2,4.1|
1,3,4.9|
1,4,1.9|
1,5,8.3|
1,6,4.2|
1,7,0.33|
2,0,0.46|
2,1,9|
2,2,6|
2,3,6.1|
2,4,8|
2,5,8.9|
2,6,7.9|
2,7,2|
3,0,0.097|
3,1,0.11|
3,2,1.1|
3,3,9.7|
3,4,8.7|
3,5,1.3|
3,6,7.2|
3,7,8|
4,0,6.1|
4,1,1.6|
4,2,7.4|
4,3,8.3|
4,4,7.8|
4,5,5.8|
4,6,0.24|
4,7,0.22|
5,0,8.5|
5,1,9.7|
5,2,7.7|
5,3,2.7|
5,4,7.2|
5,5,0.7|
5,6,7|
5,7,4.8|
6,0,1.4|
6,1,6|
6,2,1.7|
6,3,5.5|
6,4,6.8|
6,5,6.5|
6,6,9.3|
6,7,7.4|
7,0,2.6|
7,1,0.43|
7,2,4|
7,3,9.8|
7,4,5.7|
7,5,7.3|
7,6,0.24|
7,7,9.8|
];
constraint_x6_x2=[
0,0,3.1|
0,1,1.1|
0,2,7|
0,3,5.6|
0,4,0.041|
0,5,0.4|
0,6,2|
0,7,2.7|
1,0,4.8|
1,1,2.5|
1,2,2.4|
1,3,3.2|
1,4,0.22|
1,5,1.1|
1,6,0.85|
1,7,8.2|
2,0,1.1|
2,1,6.6|
2,2,4.8|
2,3,2|
2,4,1.7|
2,5,0.89|
2,6,3.4|
2,7,7.6|
3,0,8.4|
3,1,3.2|
3,2,8.2|
3,3,2.6|
3,4,8.8|
3,5,6.3|
3,6,5|
3,7,6.5|
4,0,7.6|
4,1,8.7|
4,2,3.2|
4,3,0.97|
4,4,3.7|
4,5,5.8|
4,6,3.2|
4,7,2.9|
5,0,8.2|
5,1,7.3|
5,2,4.1|
5,3,2.8|
5,4,8.2|
5,5,8.8|
5,6,3.2|
5,7,3|
6,0,0.78|
6,1,0.4|
6,2,2.1|
6,3,9.1|
6,4,8.8|
6,5,9.8|
6,6,7.3|
6,7,10|
7,0,3.3|
7,1,7.6|
7,2,0.73|
7,3,0.84|
7,4,2.6|
7,5,1.5|
7,6,8.7|
7,7,1.8|
];
constraint_x6_x5=[
0,0,4.8|
0,1,9.1|
0,2,0.38|
0,3,5.6|
0,4,4.2|
0,5,0.27|
0,6,8.1|
0,7,1|
1,0,1|
1,1,4.2|
1,2,2.1|
1,3,9.4|
1,4,9.6|
1,5,2.7|
1,6,3.2|
1,7,9.6|
2,0,2.1|
2,1,2.3|
2,2,10|
2,3,7.9|
2,4,7.4|
2,5,1.4|
2,6,6.9|
2,7,9.8|
3,0,2.7|
3,1,1.4|
3,2,1.8|
3,3,6.8|
3,4,0.49|
3,5,5.2|
3,6,2|
3,7,0.58|
4,0,6.8|
4,1,8.2|
4,2,5.7|
4,3,4.2|
4,4,5.2|
4,5,3.7|
4,6,9.8|
4,7,1.5|
5,0,9.5|
5,1,9.2|
5,2,7.7|
5,3,6.9|
5,4,6.4|
5,5,9.1|
5,6,3.6|
5,7,8.3|
6,0,4.7|
6,1,6.2|
6,2,6.3|
6,3,2.7|
6,4,7.4|
6,5,6.4|
6,6,7.9|
6,7,8.7|
7,0,3|
7,1,8.9|
7,2,1.9|
7,3,5.9|
7,4,7.2|
7,5,2.9|
7,6,0.022|
7,7,9.5|
];
constraint_x7_x3=[
0,0,8.8|
0,1,2.2|
0,2,0.23|
0,3,5.1|
0,4,5.6|
0,5,7.7|
0,6,2.3|
0,7,7|
1,0,10|
1,1,4.4|
1,2,8.5|
1,3,8.6|
1,4,5|
1,5,4.7|
1,6,5.6|
1,7,5.2|
2,0,4.2|
2,1,8.4|
2,2,4.4|
2,3,1.6|
2,4,4.3|
2,5,3.8|
2,6,2.6|
2,7,4.6|
3,0,1.1|
3,1,0.26|
3,2,4.4|
3,3,5.8|
3,4,4.1|
3,5,3.4|
3,6,3|
3,7,2.7|
4,0,4.9|
4,1,8.2|
4,2,1.2|
4,3,8.2|
4,4,5.8|
4,5,9.7|
4,6,9.9|
4,7,1.6|
5,0,4.9|
5,1,3.5|
5,2,3.2|
5,3,7.2|
5,4,6.1|
5,5,5.6|
5,6,7.1|
5,7,4.9|
6,0,5.5|
6,1,8.6|
6,2,3.2|
6,3,8.5|
6,4,3.4|
6,5,8.3|
6,6,6.3|
6,7,8|
7,0,1.6|
7,1,8.9|
7,2,5|
7,3,9|
7,4,8.3|
7,5,6.6|
7,6,0.7|
7,7,2.6|
];
constraint_x7_x6=[
0,0,1.5|
0,1,5.6|
0,2,6.1|
0,3,8.4|
0,4,3.8|
0,5,3|
0,6,5.7|
0,7,9.5|
1,0,2.9|
1,1,3.2|
1,2,8|
1,3,4.9|
1,4,2.2|
1,5,6|
1,6,3.1|
1,7,2.9|
2,0,8.5|
2,1,0.36|
2,2,0.89|
2,3,9.4|
2,4,1.1|
2,5,5.8|
2,6,0.53|
2,7,5.2|
3,0,2.8|
3,1,3.9|
3,2,4.4|
3,3,3.2|
3,4,4.6|
3,5,9.4|
3,6,7.5|
3,7,5.3|
4,0,5.7|
4,1,0.35|
4,2,9.7|
4,3,5.7|
4,4,7.3|
4,5,5.2|
4,6,8.1|
4,7,4.7|
5,0,9.2|
5,1,0.16|
5,2,5.6|
5,3,2.2|
5,4,8.4|
5,5,0.11|
5,6,5.6|
5,7,1.5|
6,0,8.2|
6,1,8.6|
6,2,9.8|
6,3,1.6|
6,4,5.2|
6,5,0.86|
6,6,6.3|
6,7,9|
7,0,0.28|
7,1,3.3|
7,2,5.2|
7,3,2.3|
7,4,7.4|
7,5,7.2|
7,6,3.7|
7,7,9.6|
];
constraint_x8_x4=[
0,0,5.3|
0,1,4.7|
0,2,6.4|
0,3,5.3|
0,4,5.9|
0,5,7.3|
0,6,4.8|
0,7,5.1|
1,0,4.6|
1,1,6.7|
1,2,5.5|
1,3,1.5|
1,4,5.7|
1,5,7.9|
1,6,0.8|
1,7,5.3|
2,0,4.2|
2,1,0.46|
2,2,4.1|
2,3,2.8|
2,4,1|
2,5,4.6|
2,6,9.1|
2,7,3|
3,0,3.4|
3,1,3.8|
3,2,8.2|
3,3,2.9|
3,4,2|
3,5,4.7|
3,6,9.7|
3,7,4.4|
4,0,7.9|
4,1,4.9|
4,2,4.9|
4,3,9.1|
4,4,2.7|
4,5,6.5|
4,6,6.2|
4,7,4|
5,0,3.6|
5,1,4.5|
5,2,5.6|
5,3,9.5|
5,4,2.5|
5,5,5.5|
5,6,7.1|
5,7,9.7|
6,0,8|
6,1,9.5|
6,2,7.8|
6,3,6.8|
6,4,1.9|
6,5,9.3|
6,6,3.7|
6,7,9.3|
7,0,9.9|
7,1,2.9|
7,2,0.61|
7,3,8.1|
7,4,8.1|
7,5,6.1|
7,6,3|
7,7,6.8|
];
constraint_x8_x7=[
0,0,2.5|
0,1,7|
0,2,8.6|
0,3,7.1|
0,4,9.9|
0,5,4.8|
0,6,2.1|
0,7,8.3|
1,0,0.64|
1,1,7.8|
1,2,9.1|
1,3,8.7|
1,4,9.2|
1,5,9.4|
1,6,2.8|
1,7,2|
2,0,3.9|
2,1,3|
2,2,3.4|
2,3,9.1|
2,4,5.3|
2,5,2.5|
2,6,6|
2,7,9.4|
3,0,8.4|
3,1,7.3|
3,2,6.2|
3,3,4.3|
3,4,9.8|
3,5,8.2|
3,6,6.8|
3,7,3.7|
4,0,2.2|
4,1,9.1|
4,2,4|
4,3,8.1|
4,4,7.6|
4,5,1.3|
4,6,9.3|
4,7,0.52|
5,0,1.7|
5,1,0.79|
5,2,6.2|
5,3,7.9|
5,4,6.4|
5,5,6.3|
5,6,3|
5,7,7.7|
6,0,8.2|
6,1,8.8|
6,2,5.6|
6,3,4.3|
6,4,3.6|
6,5,8.2|
6,6,9.2|
6,7,5.9|
7,0,8.1|
7,1,2.7|
7,2,7.6|
7,3,4.1|
7,4,1.7|
7,5,9.4|
7,6,7.2|
7,7,0.84|
];
constraint_x9_x5=[
0,0,5.2|
0,1,8.3|
0,2,3.4|
0,3,2.3|
0,4,7.1|
0,5,7.3|
0,6,3.2|
0,7,1.1|
1,0,1.2|
1,1,4.1|
1,2,0.85|
1,3,4|
1,4,0.034|
1,5,5.8|
1,6,1.1|
1,7,4.5|
2,0,5.2|
2,1,6.8|
2,2,3.2|
2,3,8.2|
2,4,8.7|
2,5,8.1|
2,6,3.2|
2,7,5.5|
3,0,0.87|
3,1,6.2|
3,2,6.6|
3,3,3.2|
3,4,5|
3,5,1.7|
3,6,9.8|
3,7,2.5|
4,0,7.2|
4,1,7.5|
4,2,1.3|
4,3,2.8|
4,4,7.7|
4,5,6|
4,6,6.3|
4,7,3.4|
5,0,5.4|
5,1,8.2|
5,2,3.1|
5,3,9.5|
5,4,4.4|
5,5,1.5|
5,6,9.9|
5,7,6.2|
6,0,3.5|
6,1,6.7|
6,2,3.6|
6,3,7.2|
6,4,2.4|
6,5,6.7|
6,6,9.4|
6,7,2.5|
7,0,0.47|
7,1,6.2|
7,2,7|
7,3,3.1|
7,4,5.6|
7,5,2.5|
7,6,3.3|
7,7,0.15|
];
constraint_x10_x6=[
0,0,6.6|
0,1,1.5|
0,2,2.9|
0,3,4.9|
0,4,1.3|
0,5,5.8|
0,6,3.7|
0,7,6.8|
1,0,3.7|
1,1,3.5|
1,2,5.1|
1,3,5.1|
1,4,4|
1,5,9.2|
1,6,7.1|
1,7,5.1|
2,0,4.8|
2,1,7.5|
2,2,5.9|
2,3,6.5|
2,4,0.83|
2,5,4.9|
2,6,5.1|
2,7,6|
3,0,2.7|
3,1,9.3|
3,2,0.39|
3,3,7.4|
3,4,2.2|
3,5,0.14|
3,6,5.7|
3,7,9.3|
4,0,4.8|
4,1,2.8|
4,2,1.2|
4,3,4.3|
4,4,4.2|
4,5,4.2|
4,6,0.11|
4,7,4.4|
5,0,0.29|
5,1,4|
5,2,4.9|
5,3,5.2|
5,4,7.7|
5,5,7.3|
5,6,0.18|
5,7,7.9|
6,0,4.8|
6,1,4.8|
6,2,2.9|
6,3,7|
6,4,9.4|
6,5,8.3|
6,6,4|
6,7,0.5|
7,0,6.9|
7,1,1.2|
7,2,2.4|
7,3,4.2|
7,4,5.4|
7,5,0.4|
7,6,9.6|
7,7,0.2|
];
constraint_x10_x9=[
0,0,0.44|
0,1,4.2|
0,2,7.8|
0,3,8.7|
0,4,3|
0,5,4.3|
0,6,2|
0,7,5.8|
1,0,7.4|
1,1,0.8|
1,2,7.5|
1,3,7.3|
1,4,5.9|
1,5,7|
1,6,2.9|
1,7,7.3|
2,0,6.2|
2,1,3.8|
2,2,7.9|
2,3,2.3|
2,4,10|
2,5,4.8|
2,6,1.5|
2,7,6|
3,0,8.8|
3,1,9.6|
3,2,3.4|
3,3,3|
3,4,7.9|
3,5,5.6|
3,6,2.7|
3,7,2.6|
4,0,7.1|
4,1,1.7|
4,2,9.8|
4,3,8|
4,4,9|
4,5,5.6|
4,6,3.6|
4,7,4.6|
5,0,2.9|
5,1,4.6|
5,2,3.7|
5,3,4.1|
5,4,4.5|
5,5,6.8|
5,6,2.6|
5,7,8.4|
6,0,0.7|
6,1,8.1|
6,2,5|
6,3,4.7|
6,4,2.7|
6,5,5|
6,6,3|
6,7,7.4|
7,0,0.88|
7,1,6.9|
7,2,1.2|
7,3,6.8|
7,4,7.4|
7,5,10|
7,6,9.1|
7,7,5.5|
];
constraint_x11_x7=[
0,0,4.1|
0,1,1.3|
0,2,9.5|
0,3,6.8|
0,4,5.6|
0,5,3.2|
0,6,1.7|
0,7,8.4|
1,0,6.9|
1,1,6.4|
1,2,2.4|
1,3,0.48|
1,4,0.018|
1,5,2.1|
1,6,0.6|
1,7,1.4|
2,0,8.9|
2,1,9.7|
2,2,3.5|
2,3,2.3|
2,4,0.98|
2,5,7.2|
2,6,3.8|
2,7,5.8|
3,0,8.8|
3,1,4.8|
3,2,3.7|
3,3,1.9|
3,4,4.8|
3,5,2.5|
3,6,8.4|
3,7,5.9|
4,0,0.94|
4,1,1.2|
4,2,4|
4,3,4.6|
4,4,9.8|
4,5,1.8|
4,6,2.6|
4,7,7.6|
5,0,3.9|
5,1,0.93|
5,2,4.2|
5,3,8.5|
5,4,2.6|
5,5,2.6|
5,6,2.3|
5,7,5.3|
6,0,2.1|
6,1,7|
6,2,3.4|
6,3,1|
6,4,7.8|
6,5,1.7|
6,6,5.9|
6,7,0.77|
7,0,3.8|
7,1,1.5|
7,2,5|
7,3,0.48|
7,4,9.2|
7,5,8|
7,6,1.7|
7,7,5.5|
];
constraint_x11_x10=[
0,0,9.5|
0,1,5.6|
0,2,8.8|
0,3,3.7|
0,4,0.78|
0,5,5.3|
0,6,3.5|
0,7,6.2|
1,0,0.6|
1,1,0.42|
1,2,7.7|
1,3,4.7|
1,4,8.3|
1,5,0.41|
1,6,8.6|
1,7,2.1|
2,0,8.9|
2,1,0.19|
2,2,6.9|
2,3,7.9|
2,4,1.8|
2,5,5.8|
2,6,6.2|
2,7,9.8|
3,0,5.3|
3,1,7|
3,2,7.1|
3,3,1.9|
3,4,8.2|
3,5,1.4|
3,6,9.5|
3,7,1.1|
4,0,1.2|
4,1,5.8|
4,2,4.3|
4,3,4|
4,4,5.6|
4,5,7.5|
4,6,8|
4,7,3.2|
5,0,6.2|
5,1,6.3|
5,2,0.55|
5,3,4.4|
5,4,0.39|
5,5,8.2|
5,6,3.5|
5,7,2.7|
6,0,4.9|
6,1,6.7|
6,2,1.8|
6,3,9.1|
6,4,7.3|
6,5,8.4|
6,6,2.5|
6,7,1.2|
7,0,6.1|
7,1,5.3|
7,2,7.9|
7,3,0.15|
7,4,7.2|
7,5,6.6|
7,6,4.4|
7,7,1.3|
];
constraint_x12_x8=[
0,0,9.8|
0,1,3.1|
0,2,4.2|
0,3,5.8|
0,4,6.1|
0,5,7.4|
0,6,1.1|
0,7,5.9|
1,0,5.8|
1,1,5.7|
1,2,3.8|
1,3,0.42|
1,4,8.1|
1,5,5.4|
1,6,4.6|
1,7,2.5|
2,0,6.4|
2,1,5.1|
2,2,9.9|
2,3,6|
2,4,2.5|
2,5,0.0059|
2,6,1.9|
2,7,3.1|
3,0,5.6|
3,1,6|
3,2,2.5|
3,3,0.91|
3,4,3.2|
3,5,8.9|
3,6,0.27|
3,7,8.3|
4,0,1.6|
4,1,0.68|
4,2,8.4|
4,3,4.4|
4,4,4.6|
4,5,7.8|
4,6,2.8|
4,7,8.9|
5,0,8.9|
5,1,2.8|
5,2,6|
5,3,6.3|
5,4,3|
5,5,6.7|
5,6,5.7|
5,7,6.3|
6,0,1.7|
6,1,4.1|
6,2,0.58|
6,3,6.6|
6,4,9.2|
6,5,9|
6,6,6.4|
6,7,4.2|
7,0,5.9|
7,1,5.4|
7,2,3.8|
7,3,8.8|
7,4,6.8|
7,5,4.7|
7,6,7.3|
7,7,8|
];
constraint_x12_x11=[
0,0,7.2|
0,1,0.87|
0,2,4|
0,3,7.5|
0,4,3.9|
0,5,8.2|
0,6,3.4|
0,7,0.91|
1,0,1.4|
1,1,9.5|
1,2,4.1|
1,3,6.7|
1,4,7.2|
1,5,3.2|
1,6,4|
1,7,0.22|
2,0,9.2|
2,1,4.1|
2,2,5.1|
2,3,8.5|
2,4,6.2|
2,5,1.9|
2,6,9|
2,7,1.4|
3,0,0.42|
3,1,7.7|
3,2,8.1|
3,3,2.9|
3,4,7.9|
3,5,8.1|
3,6,1.1|
3,7,2.9|
4,0,2.6|
4,1,7|
4,2,4.9|
4,3,9.8|
4,4,8.9|
4,5,5.2|
4,6,0.092|
4,7,7.8|
5,0,7.6|
5,1,0.25|
5,2,7.1|
5,3,3.6|
5,4,7.8|
5,5,0.26|
5,6,5.3|
5,7,2.5|
6,0,7.9|
6,1,5.4|
6,2,1.9|
6,3,9|
6,4,1.4|
6,5,6.7|
6,6,9.5|
6,7,8.2|
7,0,8.5|
7,1,7.1|
7,2,8.6|
7,3,6.7|
7,4,8.6|
7,5,4.6|
7,6,9.2|
7,7,2.1|
];
constraint_x13_x9=[
0,0,3.3|
0,1,0.83|
0,2,0.77|
0,3,3|
0,4,5.4|
0,5,2|
0,6,2.2|
0,7,7.7|
1,0,4|
1,1,5.8|
1,2,1.9|
1,3,5.1|
1,4,3.9|
1,5,9.3|
1,6,1.5|
1,7,9.3|
2,0,7.5|
2,1,3.4|
2,2,5.9|
2,3,3.1|
2,4,9.1|
2,5,1.6|
2,6,9.4|
2,7,4.6|
3,0,4.8|
3,1,3.2|
3,2,7.5|
3,3,9.7|
3,4,0.88|
3,5,4.7|
3,6,2.3|
3,7,0.54|
4,0,1.1|
4,1,2.3|
4,2,5.9|
4,3,5.9|
4,4,7.4|
4,5,9.8|
4,6,0.17|
4,7,3.5|
5,0,8.4|
5,1,1.9|
5,2,9.5|
5,3,3.3|
5,4,5.2|
5,5,2.9|
5,6,1.4|
5,7,0.8|
6,0,6.5|
6,1,3.9|
6,2,2.4|
6,3,8.6|
6,4,9.6|
6,5,4.4|
6,6,2.3|
6,7,9.5|
7,0,0.78|
7,1,7.8|
7,2,6.6|
7,3,9|
7,4,9.8|
7,5,5.2|
7,6,7.1|
7,7,1.5|
];
constraint_x14_x10=[
0,0,7.4|
0,1,9.7|
0,2,4.7|
0,3,2|
0,4,9.7|
0,5,6.2|
0,6,0.49|
0,7,4.2|
1,0,5.3|
1,1,8.7|
1,2,9.6|
1,3,1.8|
1,4,2.2|
1,5,5.2|
1,6,2.4|
1,7,5.1|
2,0,1.4|
2,1,8.9|
2,2,8.9|
2,3,2.2|
2,4,0.91|
2,5,1.3|
2,6,3.8|
2,7,5.7|
3,0,9.1|
3,1,2.9|
3,2,6|
3,3,7.2|
3,4,3.2|
3,5,9|
3,6,1.1|
3,7,4.9|
4,0,5|
4,1,6.8|
4,2,1.7|
4,3,8.5|
4,4,0.49|
4,5,7.5|
4,6,8.4|
4,7,8.9|
5,0,4.2|
5,1,5.8|
5,2,7.6|
5,3,1.2|
5,4,0.18|
5,5,0.2|
5,6,5|
5,7,0.19|
6,0,0.86|
6,1,1|
6,2,6.1|
6,3,8.8|
6,4,4.2|
6,5,1|
6,6,0.2|
6,7,5.4|
7,0,5.6|
7,1,4.9|
7,2,5.6|
7,3,6.1|
7,4,5.4|
7,5,1.1|
7,6,4.1|
7,7,3.1|
];
constraint_x14_x13=[
0,0,6.2|
0,1,5|
0,2,8.1|
0,3,3|
0,4,4.2|
0,5,1.3|
0,6,4.2|
0,7,5.7|
1,0,8.4|
1,1,4.7|
1,2,4.2|
1,3,6.7|
1,4,4.3|
1,5,7.7|
1,6,5.8|
1,7,10|
2,0,2.8|
2,1,2.3|
2,2,9.9|
2,3,4.3|
2,4,6.6|
2,5,4.4|
2,6,4.7|
2,7,9.1|
3,0,1.1|
3,1,5|
3,2,9.4|
3,3,8.5|
3,4,3.7|
3,5,0.36|
3,6,0.69|
3,7,2.3|
4,0,8|
4,1,5.7|
4,2,5|
4,3,5.6|
4,4,8.8|
4,5,7.6|
4,6,2.5|
4,7,4.3|
5,0,1.4|
5,1,4.3|
5,2,8.8|
5,3,7.6|
5,4,4.2|
5,5,9.2|
5,6,0.18|
5,7,8.2|
6,0,1.5|
6,1,2.3|
6,2,0.29|
6,3,5.8|
6,4,7.1|
6,5,1.3|
6,6,4.2|
6,7,8.4|
7,0,2.7|
7,1,8.3|
7,2,0.91|
7,3,6.1|
7,4,1.3|
7,5,8.4|
7,6,6.7|
7,7,4|
];
constraint_x15_x11=[
0,0,7.5|
0,1,3.8|
0,2,10|
0,3,3.1|
0,4,0.49|
0,5,3.5|
0,6,9.2|
0,7,4.3|
1,0,7.2|
1,1,0.16|
1,2,0.58|
1,3,1.3|
1,4,0.81|
1,5,8.1|
1,6,5.9|
1,7,4|
2,0,3.8|
2,1,1.5|
2,2,2.2|
2,3,2.2|
2,4,4.9|
2,5,8.8|
2,6,3.3|
2,7,2.7|
3,0,5.7|
3,1,7.2|
3,2,8.1|
3,3,8.7|
3,4,2.6|
3,5,3.7|
3,6,3.1|
3,7,2.1|
4,0,5.1|
4,1,9.3|
4,2,4.6|
4,3,1.5|
4,4,6.3|
4,5,8.6|
4,6,9.5|
4,7,8.9|
5,0,4.5|
5,1,3.8|
5,2,1.3|
5,3,2.5|
5,4,4.4|
5,5,8.1|
5,6,6.4|
5,7,1.4|
6,0,2.1|
6,1,2.5|
6,2,6.3|
6,3,4.1|
6,4,8.5|
6,5,7.4|
6,6,7.6|
6,7,5.4|
7,0,5.4|
7,1,8.1|
7,2,3.1|
7,3,8.4|
7,4,5.2|
7,5,6.4|
7,6,7.7|
7,7,5.4|
];
constraint_x15_x14=[
0,0,4.6|
0,1,10|
0,2,9.1|
0,3,7.1|
0,4,9.6|
0,5,5.1|
0,6,2|
0,7,2.6|
1,0,3.7|
1,1,4.8|
1,2,0.24|
1,3,8.2|
1,4,2.6|
1,5,6.4|
1,6,0.79|
1,7,2.1|
2,0,3.4|
2,1,3|
2,2,2.4|
2,3,5|
2,4,4.5|
2,5,8.8|
2,6,8.4|
2,7,5.1|
3,0,9.2|
3,1,3.1|
3,2,9.8|
3,3,7.5|
3,4,0.47|
3,5,9.5|
3,6,5.2|
3,7,9|
4,0,0.58|
4,1,3.2|
4,2,3|
4,3,1.6|
4,4,7.9|
4,5,3.1|
4,6,7.1|
4,7,7.6|
5,0,7.6|
5,1,4.4|
5,2,5.2|
5,3,6.7|
5,4,3.4|
5,5,4.8|
5,6,7|
5,7,1.3|
6,0,0.75|
6,1,2.8|
6,2,1.8|
6,3,6.8|
6,4,2.6|
6,5,9.4|
6,6,1.7|
6,7,3|
7,0,4.7|
7,1,9.8|
7,2,6.2|
7,3,3.6|
7,4,5.5|
7,5,4.8|
7,6,5.8|
7,7,0.67|
];
constraint_x16_x12=[
0,0,6.3|
0,1,2|
0,2,5.5|
0,3,9.4|
0,4,8.9|
0,5,8.8|
0,6,1.6|
0,7,0.38|
1,0,6|
1,1,0.0074|
1,2,7.7|
1,3,1.3|
1,4,7.9|
1,5,3.7|
1,6,6.6|
1,7,2.1|
2,0,6.7|
2,1,1.3|
2,2,5.3|
2,3,1.5|
2,4,9.4|
2,5,2.9|
2,6,8.5|
2,7,0.37|
3,0,8.1|
3,1,5.6|
3,2,8.6|
3,3,1.7|
3,4,5.5|
3,5,5.9|
3,6,8.6|
3,7,3.4|
4,0,3.2|
4,1,0.013|
4,2,8.3|
4,3,8.6|
4,4,2.5|
4,5,1.5|
4,6,6|
4,7,0.051|
5,0,9.6|
5,1,8.8|
5,2,9.5|
5,3,9.7|
5,4,6.8|
5,5,0.068|
5,6,9.4|
5,7,9.1|
6,0,0.45|
6,1,1.7|
6,2,8|
6,3,0.58|
6,4,5.7|
6,5,6.7|
6,6,2.1|
6,7,7.3|
7,0,9.7|
7,1,1.7|
7,2,9.1|
7,3,4.8|
7,4,3.4|
7,5,5.1|
7,6,0.69|
7,7,9.6|
];
constraint_x16_x15=[
0,0,0.9|
0,1,8.8|
0,2,8.1|
0,3,8.6|
0,4,3.5|
0,5,1.6|
0,6,2.2|
0,7,0.29|
1,0,9.7|
1,1,0.27|
1,2,5.7|
1,3,8.3|
1,4,6.2|
1,5,2.8|
1,6,5.3|
1,7,7.7|
2,0,9.3|
2,1,4.8|
2,2,3.2|
2,3,9.9|
2,4,7.9|
2,5,4.5|
2,6,9.3|
2,7,8.5|
3,0,0.93|
3,1,7.8|
3,2,0.99|
3,3,2.3|
3,4,2.8|
3,5,0.32|
3,6,7.5|
3,7,8.3|
4,0,8.1|
4,1,1.4|
4,2,0.49|
4,3,6.2|
4,4,8.5|
4,5,5|
4,6,8.3|
4,7,3.9|
5,0,1.8|
5,1,5.2|
5,2,8.1|
5,3,2.9|
5,4,5.5|
5,5,3.4|
5,6,5.1|
5,7,7.9|
6,0,8.2|
6,1,8.5|
6,2,8.1|
6,3,2|
6,4,3.8|
6,5,3.9|
6,6,6.6|
6,7,9.2|
7,0,0.16|
7,1,3.6|
7,2,4.2|
7,3,7|
7,4,0.89|
7,5,5|
7,6,2.5|
7,7,4.7|
];
constraint_x17_x13=[
0,0,1.6|
0,1,7.5|
0,2,0.42|
0,3,1.2|
0,4,2.6|
0,5,0.91|
0,6,6.6|
0,7,7.6|
1,0,0.54|
1,1,5.7|
1,2,7.7|
1,3,0.46|
1,4,5|
1,5,6.1|
1,6,1.6|
1,7,4.1|
2,0,2.5|
2,1,4.9|
2,2,0.72|
2,3,3.1|
2,4,9.3|
2,5,5.7|
2,6,1.9|
2,7,9.6|
3,0,9.9|
3,1,8.9|
3,2,4.4|
3,3,5.7|
3,4,3.3|
3,5,6.1|
3,6,9.4|
3,7,1.4|
4,0,0.46|
4,1,8.2|
4,2,9|
4,3,6.4|
4,4,0.33|
4,5,5.1|
4,6,1.8|
4,7,9.6|
5,0,7.7|
5,1,8.7|
5,2,4.5|
5,3,4.7|
5,4,6.4|
5,5,3.9|
5,6,0.32|
5,7,3.5|
6,0,3.2|
6,1,0.16|
6,2,6.7|
6,3,0.24|
6,4,6.9|
6,5,5.2|
6,6,3.8|
6,7,5.5|
7,0,6.7|
7,1,4.6|
7,2,9.7|
7,3,6.6|
7,4,4|
7,5,7.4|
7,6,2.3|
7,7,6|
];
constraint_x18_x14=[
0,0,5.9|
0,1,9|
0,2,5.2|
0,3,5.5|
0,4,4.8|
0,5,9.5|
0,6,9.2|
0,7,4.1|
1,0,3.3|
1,1,6.8|
1,2,4.6|
1,3,9.7|
1,4,7.3|
1,5,0.058|
1,6,9.2|
1,7,10|
2,0,0.71|
2,1,0.7|
2,2,4.3|
2,3,4.3|
2,4,6.4|
2,5,7.8|
2,6,7.5|
2,7,8.4|
3,0,3.7|
3,1,4.2|
3,2,7|
3,3,2.2|
3,4,0.37|
3,5,3|
3,6,9.8|
3,7,3.2|
4,0,2.8|
4,1,0.25|
4,2,1.4|
4,3,3.3|
4,4,5.5|
4,5,4.6|
4,6,1.6|
4,7,2.9|
5,0,7.7|
5,1,8.4|
5,2,3|
5,3,4.6|
5,4,5.9|
5,5,3.1|
5,6,1.3|
5,7,9.7|
6,0,4.9|
6,1,2.8|
6,2,8.5|
6,3,6.8|
6,4,6.4|
6,5,2.9|
6,6,1.3|
6,7,4.9|
7,0,7.9|
7,1,5.4|
7,2,6.5|
7,3,7.7|
7,4,8.6|
7,5,8.3|
7,6,5.8|
7,7,6.6|
];
constraint_x18_x17=[
0,0,7.7|
0,1,7.8|
0,2,9.9|
0,3,5.7|
0,4,3.9|
0,5,9.8|
0,6,6.2|
0,7,9.1|
1,0,7.3|
1,1,2.3|
1,2,5.7|
1,3,9.7|
1,4,3.9|
1,5,4.8|
1,6,7.4|
1,7,2.3|
2,0,8|
2,1,9.8|
2,2,1|
2,3,3.6|
2,4,8.2|
2,5,0.76|
2,6,2.6|
2,7,9.7|
3,0,9.9|
3,1,1.7|
3,2,6.8|
3,3,2.6|
3,4,7.2|
3,5,3.3|
3,6,9|
3,7,6.2|
4,0,4|
4,1,1.6|
4,2,0.59|
4,3,6|
4,4,1.4|
4,5,8.3|
4,6,5.3|
4,7,4.6|
5,0,8.5|
5,1,2.5|
5,2,8.9|
5,3,3.6|
5,4,8.4|
5,5,1.2|
5,6,5.9|
5,7,8.5|
6,0,8.8|
6,1,2.4|
6,2,5.1|
6,3,2.3|
6,4,1.9|
6,5,2.8|
6,6,6.5|
6,7,6|
7,0,1.9|
7,1,5.2|
7,2,5.6|
7,3,7.5|
7,4,2.4|
7,5,2.3|
7,6,3.4|
7,7,2.4|
];
constraint_x19_x15=[
0,0,3.6|
0,1,6.4|
0,2,8.3|
0,3,0.78|
0,4,5.7|
0,5,9.2|
0,6,0.54|
0,7,4.5|
1,0,4.3|
1,1,9.2|
1,2,2|
1,3,6.7|
1,4,9.1|
1,5,1.6|
1,6,6.1|
1,7,9.9|
2,0,3|
2,1,1.5|
2,2,8.1|
2,3,2.4|
2,4,4.6|
2,5,10|
2,6,7.5|
2,7,2.6|
3,0,7.2|
3,1,3.1|
3,2,8.8|
3,3,7.7|
3,4,7.8|
3,5,5.7|
3,6,0.45|
3,7,0.2|
4,0,1|
4,1,7.3|
4,2,0.45|
4,3,3.5|
4,4,6.3|
4,5,1.8|
4,6,0.54|
4,7,7.9|
5,0,2|
5,1,3.9|
5,2,1.3|
5,3,2.3|
5,4,6.2|
5,5,5.4|
5,6,0.81|
5,7,5.2|
6,0,3.3|
6,1,5|
6,2,4.4|
6,3,0.07|
6,4,0.64|
6,5,2.3|
6,6,2.7|
6,7,3.8|
7,0,8.6|
7,1,0.99|
7,2,3.8|
7,3,4.8|
7,4,6.7|
7,5,4.2|
7,6,6|
7,7,3.3|
];
constraint_x19_x18=[
0,0,8.6|
0,1,3.1|
0,2,2.1|
0,3,9.2|
0,4,9.6|
0,5,6.5|
0,6,5.6|
0,7,8.2|
1,0,8.5|
1,1,5.7|
1,2,8.5|
1,3,7.3|
1,4,7.9|
1,5,5.3|
1,6,4.2|
1,7,2.4|
2,0,0.44|
2,1,2.9|
2,2,2.3|
2,3,7.3|
2,4,4.4|
2,5,0.97|
2,6,2.3|
2,7,2|
3,0,3.4|
3,1,6.8|
3,2,2.4|
3,3,1.3|
3,4,6.1|
3,5,6.9|
3,6,8.5|
3,7,4.5|
4,0,3.1|
4,1,8.6|
4,2,8.7|
4,3,2.6|
4,4,2.6|
4,5,5.3|
4,6,1.2|
4,7,3.6|
5,0,1.8|
5,1,9.8|
5,2,7.4|
5,3,0.79|
5,4,3.8|
5,5,4|
5,6,4.5|
5,7,7.7|
6,0,0.66|
6,1,8.7|
6,2,9.8|
6,3,0.59|
6,4,0.054|
6,5,0.2|
6,6,2|
6,7,8.6|
7,0,2.8|
7,1,3.3|
7,2,8.5|
7,3,7.9|
7,4,5.2|
7,5,9.1|
7,6,0.81|
7,7,2|
];
constraint_x20_x16=[
0,0,5.4|
0,1,4.6|
0,2,1.3|
0,3,4.7|
0,4,0.081|
0,5,6.1|
0,6,7.6|
0,7,5.8|
1,0,7.8|
1,1,8.5|
1,2,5.7|
1,3,6.3|
1,4,8.4|
1,5,0.87|
1,6,3.8|
1,7,6.3|
2,0,5.7|
2,1,9.3|
2,2,9.6|
2,3,7.1|
2,4,4.2|
2,5,3.4|
2,6,5.6|
2,7,3.2|
3,0,2.6|
3,1,3.5|
3,2,9.9|
3,3,4.8|
3,4,9.1|
3,5,2.2|
3,6,9.9|
3,7,0.065|
4,0,6.6|
4,1,0.19|
4,2,0.51|
4,3,4|
4,4,9.3|
4,5,5.8|
4,6,7.7|
4,7,8.1|
5,0,9.3|
5,1,3.5|
5,2,7.8|
5,3,6.3|
5,4,3.2|
5,5,7.1|
5,6,0.5|
5,7,7.8|
6,0,5.5|
6,1,2.4|
6,2,3.7|
6,3,9.5|
6,4,5.8|
6,5,3.2|
6,6,8.6|
6,7,0.45|
7,0,5|
7,1,1|
7,2,0.2|
7,3,7.6|
7,4,9.3|
7,5,5.9|
7,6,1.2|
7,7,0.57|
];
constraint_x20_x19=[
0,0,7.8|
0,1,6.5|
0,2,2.2|
0,3,4.7|
0,4,8.7|
0,5,0.42|
0,6,8.8|
0,7,1.5|
1,0,5.2|
1,1,4|
1,2,8.3|
1,3,2.4|
1,4,9.3|
1,5,6.7|
1,6,5.9|
1,7,3.6|
2,0,1|
2,1,9.2|
2,2,5.4|
2,3,2.1|
2,4,9.4|
2,5,1.5|
2,6,3.5|
2,7,3.3|
3,0,3|
3,1,8.3|
3,2,0.38|
3,3,5.1|
3,4,6.3|
3,5,1.1|
3,6,9|
3,7,2.3|
4,0,7.2|
4,1,1.6|
4,2,0.13|
4,3,6|
4,4,3|
4,5,3.3|
4,6,6.9|
4,7,7.3|
5,0,1.4|
5,1,9.1|
5,2,7.6|
5,3,6.4|
5,4,0.12|
5,5,2.1|
5,6,8.8|
5,7,6.2|
6,0,0.93|
6,1,3.8|
6,2,7|
6,3,1.2|
6,4,6.7|
6,5,6.3|
6,6,6.7|
6,7,5.8|
7,0,7|
7,1,1.3|
7,2,0.8|
7,3,6.6|
7,4,3.1|
7,5,0.42|
7,6,7.9|
7,7,6.9|
];
constraint_x1_y1=[
0,0,7.9|
0,1,7.2|
0,2,0.81|
0,3,2.3|
0,4,9.8|
0,5,2.4|
0,6,8.4|
0,7,2.4|
1,0,8.5|
1,1,4.3|
1,2,7.3|
1,3,7.8|
1,4,3.3|
1,5,4.4|
1,6,1.4|
1,7,1.9|
2,0,6.3|
2,1,3.1|
2,2,1.7|
2,3,5|
2,4,8.6|
2,5,4.5|
2,6,3.7|
2,7,3.6|
3,0,2.3|
3,1,5.5|
3,2,5.9|
3,3,8.4|
3,4,6.4|
3,5,8.3|
3,6,4.7|
3,7,5.7|
4,0,3.2|
4,1,1|
4,2,1.1|
4,3,4.7|
4,4,4.5|
4,5,4.4|
4,6,9.6|
4,7,0.98|
5,0,4.5|
5,1,6.9|
5,2,9.8|
5,3,4.7|
5,4,6.9|
5,5,9.1|
5,6,5.2|
5,7,6.9|
6,0,7.5|
6,1,9.6|
6,2,4.2|
6,3,6.4|
6,4,4.3|
6,5,0.64|
6,6,8.6|
6,7,7.9|
7,0,8.8|
7,1,5.1|
7,2,9.1|
7,3,8.8|
7,4,8.9|
7,5,2.9|
7,6,10|
7,7,8.6|
];
constraint_x2_y2=[
0,0,0.66|
0,1,8.8|
0,2,8.4|
0,3,3|
0,4,5.1|
0,5,2.5|
0,6,0.76|
0,7,1.3|
1,0,1.3|
1,1,8.6|
1,2,9.6|
1,3,0.65|
1,4,1.3|
1,5,9.5|
1,6,8.8|
1,7,6.5|
2,0,4|
2,1,6.1|
2,2,8.3|
2,3,2.3|
2,4,6.7|
2,5,9.2|
2,6,1|
2,7,1.7|
3,0,5.7|
3,1,2.4|
3,2,1.7|
3,3,0.62|
3,4,6.3|
3,5,4.9|
3,6,9.9|
3,7,9.1|
4,0,5.8|
4,1,1.6|
4,2,4.4|
4,3,6.6|
4,4,0.52|
4,5,2.1|
4,6,2.1|
4,7,4.3|
5,0,7.7|
5,1,6.7|
5,2,9.8|
5,3,2.7|
5,4,10|
5,5,0.39|
5,6,5.5|
5,7,2.8|
6,0,7.3|
6,1,7|
6,2,1.7|
6,3,3.6|
6,4,0.26|
6,5,4.7|
6,6,7.7|
6,7,3.6|
7,0,5.1|
7,1,4.6|
7,2,7.4|
7,3,5.7|
7,4,1.5|
7,5,6|
7,6,9.2|
7,7,6.3|
];
constraint_x3_y3=[
0,0,2.4|
0,1,3.2|
0,2,9.9|
0,3,1.1|
0,4,5.7|
0,5,1.5|
0,6,6.3|
0,7,8.4|
1,0,8.8|
1,1,6.7|
1,2,4.2|
1,3,8.4|
1,4,9|
1,5,6.4|
1,6,5.4|
1,7,6.8|
2,0,6.9|
2,1,6|
2,2,3.4|
2,3,7.7|
2,4,5.5|
2,5,7|
2,6,3.3|
2,7,9.7|
3,0,7.4|
3,1,2.2|
3,2,3.7|
3,3,3.5|
3,4,6.9|
3,5,2.5|
3,6,7.4|
3,7,4.3|
4,0,4.5|
4,1,5.7|
4,2,9.3|
4,3,2.5|
4,4,2.5|
4,5,5.4|
4,6,4.9|
4,7,4.2|
5,0,5|
5,1,0.47|
5,2,9.1|
5,3,2.4|
5,4,6.2|
5,5,2.3|
5,6,5.3|
5,7,5.4|
6,0,0.3|
6,1,1.3|
6,2,7.1|
6,3,3.1|
6,4,5.3|
6,5,6.6|
6,6,8.9|
6,7,8.1|
7,0,1.2|
7,1,2.4|
7,2,4.1|
7,3,4.9|
7,4,8.5|
7,5,9.6|
7,6,5.3|
7,7,8|
];
constraint_x4_y4=[
0,0,6.6|
0,1,1.7|
0,2,1.4|
0,3,4.7|
0,4,6.1|
0,5,7.9|
0,6,7.3|
0,7,8.7|
1,0,6.2|
1,1,9|
1,2,6.3|
1,3,7.4|
1,4,2.1|
1,5,6.2|
1,6,3.1|
1,7,1.7|
2,0,6|
2,1,8|
2,2,5.6|
2,3,4.2|
2,4,10|
2,5,2|
2,6,9.2|
2,7,2.9|
3,0,7.3|
3,1,7.7|
3,2,5.7|
3,3,5.2|
3,4,9.4|
3,5,0.35|
3,6,7.3|
3,7,2.3|
4,0,4.2|
4,1,5.6|
4,2,5.6|
4,3,9.8|
4,4,4|
4,5,2.6|
4,6,7.1|
4,7,1.1|
5,0,8.8|
5,1,0.67|
5,2,4.6|
5,3,6.3|
5,4,8.1|
5,5,8.2|
5,6,7.8|
5,7,3.2|
6,0,1.3|
6,1,0.13|
6,2,0.41|
6,3,8.8|
6,4,7|
6,5,1.5|
6,6,2.2|
6,7,1|
7,0,6.9|
7,1,4.7|
7,2,8.9|
7,3,3.8|
7,4,2.6|
7,5,1.7|
7,6,2.4|
7,7,7.4|
];
constraint_x5_y5=[
0,0,6.7|
0,1,8.5|
0,2,1.8|
0,3,9.1|
0,4,9.7|
0,5,1.4|
0,6,2.8|
0,7,7.2|
1,0,2.8|
1,1,5.5|
1,2,5.3|
1,3,8.6|
1,4,8.3|
1,5,4.4|
1,6,0.98|
1,7,2.3|
2,0,5.1|
2,1,0.037|
2,2,3.4|
2,3,2.7|
2,4,0.099|
2,5,9.4|
2,6,5|
2,7,3.4|
3,0,9.9|
3,1,0.54|
3,2,1.7|
3,3,5.9|
3,4,8.7|
3,5,2|
3,6,9.7|
3,7,7.8|
4,0,6.9|
4,1,3|
4,2,5.6|
4,3,2|
4,4,2.1|
4,5,2.5|
4,6,2.5|
4,7,1.9|
5,0,9.6|
5,1,2.4|
5,2,4.1|
5,3,4.3|
5,4,4.4|
5,5,5.4|
5,6,2.4|
5,7,3.2|
6,0,5.8|
6,1,8.2|
6,2,4.7|
6,3,3.5|
6,4,9.1|
6,5,5.9|
6,6,4.3|
6,7,8.2|
7,0,9.2|
7,1,6.5|
7,2,6|
7,3,3.8|
7,4,4.5|
7,5,3.9|
7,6,7.7|
7,7,4.3|
];
constraint_x6_y6=[
0,0,0.58|
0,1,4.8|
0,2,7.6|
0,3,8.1|
0,4,4.1|
0,5,8.4|
0,6,9.5|
0,7,4.9|
1,0,2.6|
1,1,7.9|
1,2,4.6|
1,3,0.85|
1,4,9.6|
1,5,7.8|
1,6,0.33|
1,7,0.67|
2,0,5.5|
2,1,3.3|
2,2,0.69|
2,3,9.6|
2,4,4.8|
2,5,5.9|
2,6,9|
2,7,7.6|
3,0,4.6|
3,1,7.2|
3,2,8.4|
3,3,7.3|
3,4,9|
3,5,6|
3,6,9.6|
3,7,0.32|
4,0,8.3|
4,1,6.3|
4,2,5.4|
4,3,0.69|
4,4,4.3|
4,5,0.6|
4,6,9.5|
4,7,10|
5,0,1.8|
5,1,0.36|
5,2,5.2|
5,3,2.1|
5,4,6.4|
5,5,9.5|
5,6,6.7|
5,7,7.7|
6,0,8.6|
6,1,8.9|
6,2,6.9|
6,3,4.5|
6,4,9.5|
6,5,6.6|
6,6,9.8|
6,7,6.6|
7,0,4.4|
7,1,3.8|
7,2,1.7|
7,3,2.4|
7,4,3.4|
7,5,4.4|
7,6,8.4|
7,7,5.6|
];
constraint_x7_y7=[
0,0,1.4|
0,1,5.6|
0,2,5.7|
0,3,8.4|
0,4,1.8|
0,5,3.7|
0,6,9.2|
0,7,8.2|
1,0,0.81|
1,1,5.2|
1,2,2.9|
1,3,4.4|
1,4,5.4|
1,5,7.9|
1,6,3|
1,7,2.6|
2,0,6|
2,1,2|
2,2,9.2|
2,3,9.6|
2,4,9.5|
2,5,2.2|
2,6,2.5|
2,7,8.1|
3,0,0.027|
3,1,1.4|
3,2,9.8|
3,3,3.2|
3,4,7|
3,5,9.8|
3,6,5.8|
3,7,4.9|
4,0,7.3|
4,1,6.5|
4,2,8.2|
4,3,5.2|
4,4,6.9|
4,5,0.29|
4,6,1.9|
4,7,1.4|
5,0,4.3|
5,1,7.5|
5,2,9.6|
5,3,3|
5,4,6.2|
5,5,2.5|
5,6,9.2|
5,7,1.5|
6,0,8.9|
6,1,2|
6,2,5.5|
6,3,5.9|
6,4,9.2|
6,5,4.6|
6,6,1.8|
6,7,6.2|
7,0,9.8|
7,1,4.2|
7,2,4.2|
7,3,2.9|
7,4,6.8|
7,5,3.4|
7,6,1.4|
7,7,6.2|
];
constraint_x8_y8=[
0,0,4.5|
0,1,2.8|
0,2,4|
0,3,8.9|
0,4,1.4|
0,5,6.9|
0,6,0.064|
0,7,5.5|
1,0,5.5|
1,1,3|
1,2,9.5|
1,3,5.7|
1,4,1.1|
1,5,7.9|
1,6,7.1|
1,7,7.2|
2,0,5.2|
2,1,5.5|
2,2,0.97|
2,3,2.8|
2,4,1.6|
2,5,4.7|
2,6,0.28|
2,7,1.7|
3,0,0.18|
3,1,6.9|
3,2,6.1|
3,3,2.8|
3,4,1|
3,5,0.53|
3,6,1.2|
3,7,5.3|
4,0,8|
4,1,4.1|
4,2,2.5|
4,3,9.8|
4,4,8.2|
4,5,5.1|
4,6,9.3|
4,7,8.8|
5,0,8.8|
5,1,1|
5,2,7.6|
5,3,3.3|
5,4,6.7|
5,5,7.2|
5,6,1.6|
5,7,4.1|
6,0,6.9|
6,1,2.7|
6,2,8.1|
6,3,4.4|
6,4,2.7|
6,5,5.1|
6,6,4|
6,7,7.5|
7,0,2.8|
7,1,3.8|
7,2,3.4|
7,3,7.2|
7,4,4.4|
7,5,0.094|
7,6,8.8|
7,7,7.2|
];
constraint_x9_y9=[
0,0,7|
0,1,1.7|
0,2,5.9|
0,3,8.1|
0,4,8.4|
0,5,2.2|
0,6,2.2|
0,7,0.35|
1,0,5.1|
1,1,0.84|
1,2,6.2|
1,3,4.5|
1,4,8.4|
1,5,3.2|
1,6,0.43|
1,7,6|
2,0,6|
2,1,4.3|
2,2,0.099|
2,3,3.6|
2,4,6|
2,5,1.7|
2,6,9.7|
2,7,5.5|
3,0,0.24|
3,1,2.4|
3,2,0.97|
3,3,5.6|
3,4,5|
3,5,5.3|
3,6,3.1|
3,7,9.3|
4,0,5.9|
4,1,2.2|
4,2,3.8|
4,3,3|
4,4,4.3|
4,5,4.4|
4,6,3.9|
4,7,7.9|
5,0,5|
5,1,7.7|
5,2,6.1|
5,3,1.5|
5,4,7.2|
5,5,3.7|
5,6,4.2|
5,7,5.5|
6,0,9.6|
6,1,9.3|
6,2,5.2|
6,3,2.2|
6,4,5.2|
6,5,1|
6,6,6.9|
6,7,7.4|
7,0,3.3|
7,1,7.8|
7,2,0.41|
7,3,8.6|
7,4,8.5|
7,5,6.4|
7,6,2.1|
7,7,0.45|
];
initial_distribution_y1=[0.12,0.16,0.12,0.12,0.1,0.16,0.051,0.17];
initial_distribution_y2=[0.13,0.17,0.13,0.031,0.18,0.055,0.21,0.093];
initial_distribution_y3=[0.23,0.019,0.23,0.16,0.0032,0.16,0.096,0.1];
initial_distribution_y4=[0.2,0.17,0.094,0.19,0.1,0.03,0.082,0.13];
initial_distribution_y5=[0.18,0.21,0.096,0.15,0.061,0.085,0.16,0.047];
initial_distribution_y6=[0.22,0.18,0.06,0.046,0.21,0.16,0.11,0.021];
initial_distribution_y7=[0.16,0.19,0.1,0.13,0.22,0.068,0.047,0.082];
initial_distribution_y8=[0.056,0.17,0.13,0.2,0.11,0.089,0.073,0.17];
initial_distribution_y9=[0.17,0.18,0.056,0.092,0.099,0.17,0.093,0.14];
transition_y1=[
0.16,0.13,0.016,0.14,0.16,0.069,0.18,0.15|
0.15,0.18,0.097,0.087,0.074,0.21,0.075,0.12|
0.17,0.16,0.19,0.031,0.064,0.17,0.13,0.086|
0.26,0.064,0.13,0.15,0.044,0.058,0.26,0.033|
0.016,0.15,0.11,0.052,0.18,0.19,0.14,0.16|
0.081,0.044,0.096,0.045,0.087,0.1,0.27,0.28|
0.13,0.23,0.058,0.19,0.057,0.13,0.061,0.15|
0.19,0.06,0.22,0.044,0.0036,0.13,0.28,0.068|
];
transition_y2=[
0.028,0.11,0.11,0.18,0.2,0.22,0.087,0.069|
0.092,0.056,0.18,0.04,0.18,0.15,0.099,0.2|
0.23,0.03,0.0047,0.22,0.21,0.059,0.16,0.086|
0.069,0.099,0.096,0.063,0.16,0.16,0.17,0.18|
0.027,0.17,0.15,0.15,0.058,0.15,0.11,0.18|
0.24,0.12,0.068,0.13,0.085,0.18,0.055,0.12|
0.071,0.21,0.093,0.12,0.2,0.066,0.13,0.11|
0.21,0.16,0.18,0.047,0.0083,0.083,0.099,0.21|
];
transition_y3=[
0.14,0.19,0.18,0.089,0.086,0.092,0.12,0.1|
0.14,0.074,0.14,0.03,0.064,0.24,0.075,0.23|
0.15,0.064,0.2,0.15,0.12,0.059,0.13,0.13|
0.14,0.21,0.02,0.075,0.19,0.041,0.25,0.062|
0.098,0.042,0.2,0.16,0.092,0.23,0.0093,0.17|
0.046,0.14,0.071,0.066,0.17,0.15,0.1,0.25|
0.12,0.27,0.094,0.096,0.012,0.0056,0.23,0.17|
0.066,0.13,0.018,0.16,0.17,0.06,0.18,0.22|
];
transition_y4=[
0.18,0.076,0.021,0.23,0.093,0.15,0.18,0.063|
0.089,0.045,0.19,0.17,0.069,0.17,0.16,0.11|
0.0036,0.18,0.0049,0.13,0.13,0.11,0.23,0.21|
0.089,0.16,0.2,0.099,0.2,0.11,0.14,0.0071|
0.11,0.016,0.013,0.32,0.068,0.26,0.088,0.12|
0.076,0.12,0.12,0.12,0.15,0.19,0.12,0.11|
0.1,0.087,0.18,0.17,0.17,0.035,0.18,0.07|
0.044,0.13,0.14,0.083,0.2,0.1,0.19,0.12|
];
transition_y5=[
0.09,0.089,0.29,0.13,0.07,0.053,0.072,0.21|
0.21,0.22,0.0076,0.17,0.021,0.2,0.075,0.1|
0.23,0.12,0.14,0.12,0.058,0.085,0.052,0.2|
0.013,0.08,0.24,0.095,0.3,0.17,0.07,0.038|
0.071,0.033,0.17,0.23,0.0058,0.23,0.076,0.19|
0.19,0.07,0.14,0.11,0.084,0.019,0.18,0.2|
0.14,0.029,0.19,0.065,0.21,0.24,0.032,0.099|
0.11,0.036,0.11,0.2,0.17,0.017,0.19,0.17|
];
transition_y6=[
0.05,0.13,0.25,0.26,0.045,0.013,0.12,0.13|
0.16,0.24,0.045,0.14,0.044,0.2,0.042,0.13|
0.22,0.11,0.1,0.056,0.094,0.033,0.16,0.22|
0.062,0.13,0.073,0.15,0.18,0.19,0.19,0.018|
0.067,0.28,0.0089,0.12,0.17,0.19,0.12,0.037|
0.17,0.046,0.11,0.23,0.16,0.071,0.11,0.11|
0.2,0.19,0.017,0.19,0.14,0.014,0.12,0.14|
0.26,0.065,0.092,0.22,0.094,0.17,0.021,0.071|
];
transition_y7=[
0.1,0.2,0.045,0.21,0.092,0.088,0.12,0.15|
0.16,0.05,0.1,0.23,0.0067,0.23,0.22,0.0059|
0.18,0.09,0.11,0.19,0.012,0.23,0.034,0.15|
0.025,0.094,0.22,0.24,0.11,0.057,0.11,0.14|
0.17,0.15,0.052,0.19,0.16,0.093,0.013,0.18|
0.16,0.14,0.16,0.022,0.02,0.14,0.27,0.089|
0.079,0.29,0.075,0.12,0.24,0.088,0.068,0.034|
0.0067,0.16,0.043,0.21,0.0066,0.21,0.24,0.12|
];
transition_y8=[
0.17,0.18,0.066,0.11,0.056,0.17,0.16,0.095|
0.13,0.24,0.1,0.097,0.14,0.033,0.19,0.082|
0.069,0.013,0.21,0.046,0.11,0.1,0.11,0.33|
0.22,0.031,0.097,0.05,0.11,0.14,0.018,0.33|
0.15,0.19,0.13,0.13,0.1,0.18,0.061,0.056|
0.19,0.19,0.053,0.0074,0.052,0.08,0.22,0.2|
0.054,0.097,0.15,0.18,0.16,0.15,0.036,0.17|
0.012,0.023,0.25,0.044,0.21,0.084,0.21,0.17|
];
transition_y9=[
0.11,0.17,0.18,0.17,0.13,0.16,0.0043,0.073|
0.23,0.12,0.16,0.11,0.24,0.11,0.011,0.019|
0.21,0.14,0.0047,0.066,0.14,0.15,0.2,0.086|
0.17,0.22,0.23,0.12,0.034,0.0045,0.11,0.11|
0.23,0.043,0.18,0.11,0.13,0.13,0.13,0.062|
0.2,0.12,0.14,0.13,0.1,0.055,0.034,0.22|
0.15,0.089,0.14,0.13,0.14,0.14,0.1,0.12|
0.08,0.18,0.29,0.075,0.13,0.17,0.036,0.041|
];
